42
75
52	1
51	2
50	2
49	2
48	2
47	2
46	3
45	2
44	1
43	5
41	2
40	4
38	4
37	3
36	1
35	1
34	1
31	3
30	4
29	3
28	3
27	2
26	1
25	4
24	2
23	1
22	2
21	1
20	1
19	2
18	4
17	4
16	3
15	2
14	1
13	1
12	1
11	3
10	5
9	1
8	4
7	4
